10
0 38 13 73 10 76 6 80 65 17 
38 0 2 77 72 7 26 51 21 19 
13 2 0 85 12 29 30 15 51 69 
73 77 85 0 88 88 95 97 87 14 
10 72 12 88 0 10 8 64 62 23 
76 7 29 88 10 0 58 2 1 61 
6 26 30 95 8 58 0 82 9 89 
80 51 15 97 64 2 82 0 14 48 
65 21 51 87 62 1 9 14 0 73 
17 19 69 14 23 61 89 48 73 0 
